DIMACS2
80 49 38 286 617 63 572 499 508 70 489 135 61 397 626 320 420 81 209 51 440 282 443 206 207 501 98 581 546 538 563 356 336 392 384 77 484 197 66 105 170 354 416 47 259 157 390 23 45 566 396 488 138 324 205 459 562 178 445 451 87 334 305 294 198 616 513 270 500 613 468 574 151 462 236 620 594 134 17 502 131
p edge 640 1524
e 0 506 1.0
e 0 149 2.0
e 1 320 39.0
e 1 380 1.0
e 2 94 1.0
e 2 201 1.0
e 3 220 1.0
e 3 553 1.0
e 4 111 2.0
e 4 317 2.0
e 5 228 1.0
e 5 152 2.0
e 6 303 2.0
e 6 533 3.0
e 7 173 2.0
e 7 319 1.0
e 8 497 1.0
e 8 626 26.0
e 9 64 2.0
e 9 146 1.0
e 10 38 13.0
e 10 581 17.0
e 11 138 34.0
e 11 145 1.0
e 12 243 2.0
e 12 492 1.0
e 13 501 49.0
e 13 285 1.0
e 14 295 1.0
e 14 479 2.0
e 15 480 1.0
e 15 355 1.0
e 16 315 1.0
e 16 376 1.0
e 17 94 26.0
e 17 247 11.0
e 17 189 49.0
e 17 369 20.0
e 17 613 27.0
e 17 594 28.0
e 17 284 12.0
e 18 22 1.0
e 18 99 1.0
e 19 439 1.0
e 19 52 1.0
e 20 278 1.0
e 20 584 1.0
e 21 271 1.0
e 21 536 1.0
e 22 213 1.0
e 22 70 24.0
e 23 77 11.0
e 23 548 44.0
e 23 259 32.0
e 23 334 39.0
e 23 170 37.0
e 23 29 2.0
e 23 105 5.0
e 24 465 2.0
e 24 386 1.0
e 25 407 1.0
e 25 344 1.0
e 26 168 1.0
e 26 90 1.0
e 27 266 1.0
e 27 74 1.0
e 28 64 1.0
e 28 91 1.0
e 29 419 7.0
e 29 502 48.0
e 30 530 2.0
e 30 512 1.0
e 31 515 1.0
e 31 263 2.0
e 32 137 1.0
e 32 239 1.0
e 33 484 3.0
e 33 35 1.0
e 34 195 1.0
e 34 394 2.0
e 35 474 1.0
e 35 192 1.0
e 36 462 26.0
e 36 143 1.0
e 37 311 1.0
e 37 292 1.0
e 38 85 40.0
e 38 636 42.0
e 38 282 12.0
e 38 236 29.0
e 38 484 36.0
e 39 614 2.0
e 39 494 1.0
e 40 253 5.0
e 40 218 1.0
e 41 200 1.0
e 41 503 2.0
e 42 366 1.0
e 42 459 33.0
e 43 438 1.0
e 43 496 2.0
e 44 306 1.0
e 44 464 3.0
e 45 226 15.0
e 45 410 24.0
e 45 170 23.0
e 45 488 19.0
e 45 354 38.0
e 45 563 37.0
e 45 384 32.0
e 45 157 26.0
e 46 232 1.0
e 46 78 1.0
e 47 327 17.0
e 47 109 15.0
e 47 416 15.0
e 47 500 30.0
e 47 178 25.0
e 47 259 44.0
e 47 131 43.0
e 47 620 41.0
e 48 94 1.0
e 49 521 16.0
e 49 262 10.0
e 49 259 1.0
e 49 562 19.0
e 49 170 43.0
e 49 77 49.0
e 49 354 14.0
e 49 563 25.0
e 49 236 15.0
e 50 593 1.0
e 50 231 3.0
e 51 433 11.0
e 51 518 5.0
e 51 508 20.0
e 51 392 25.0
e 51 416 35.0
e 51 334 20.0
e 52 550 1.0
e 52 412 1.0
e 53 289 1.0
e 53 587 2.0
e 54 493 1.0
e 54 286 49.0
e 55 25 1.0
e 55 319 1.0
e 56 36 1.0
e 56 158 1.0
e 57 616 6.0
e 57 141 1.0
e 58 533 1.0
e 58 350 1.0
e 59 137 1.0
e 59 592 2.0
e 60 195 1.0
e 60 156 1.0
e 61 45 9.0
e 61 338 39.0
e 61 572 23.0
e 61 270 9.0
e 62 30 1.0
e 62 195 1.0
e 63 240 37.0
e 63 311 31.0
e 63 138 22.0
e 63 613 44.0
e 63 131 36.0
e 63 170 9.0
e 64 300 2.0
e 64 251 1.0
e 65 363 1.0
e 65 452 1.0
e 66 332 25.0
e 66 293 30.0
e 66 513 16.0
e 66 170 41.0
e 66 197 14.0
e 66 459 12.0
e 66 259 38.0
e 67 616 42.0
e 67 216 1.0
e 68 117 1.0
e 68 409 1.0
e 69 70 26.0
e 69 21 2.0
e 70 308 35.0
e 70 575 5.0
e 70 51 30.0
e 70 131 34.0
e 70 197 24.0
e 70 286 25.0
e 71 579 1.0
e 71 332 1.0
e 72 57 1.0
e 72 343 1.0
e 73 303 2.0
e 73 207 9.0
e 74 12 1.0
e 74 110 1.0
e 75 501 19.0
e 75 324 22.0
e 76 562 1.0
e 76 486 1.0
e 77 244 40.0
e 77 532 18.0
e 77 197 13.0
e 77 484 38.0
e 77 63 17.0
e 78 631 1.0
e 78 478 1.0
e 79 259 25.0
e 79 292 1.0
e 80 439 1.0
e 80 232 1.0
e 81 299 2.0
e 81 196 40.0
e 81 562 28.0
e 81 354 3.0
e 81 236 23.0
e 81 620 40.0
e 81 209 24.0
e 81 384 31.0
e 82 429 1.0
e 82 79 1.0
e 83 575 1.0
e 83 316 1.0
e 84 396 27.0
e 84 346 2.0
e 85 99 1.0
e 85 129 1.0
e 86 291 1.0
e 86 242 1.0
e 87 200 35.0
e 87 114 20.0
e 87 384 27.0
e 87 440 28.0
e 87 396 27.0
e 87 197 35.0
e 88 309 1.0
e 88 374 2.0
e 89 598 1.0
e 89 554 1.0
e 90 621 1.0
e 90 476 1.0
e 91 95 1.0
e 91 626 41.0
e 92 38 14.0
e 92 630 1.0
e 93 263 1.0
e 93 486 2.0
e 94 257 1.0
e 94 53 1.0
e 95 253 3.0
e 95 497 1.0
e 96 217 1.0
e 96 576 2.0
e 97 279 1.0
e 97 460 1.0
e 98 483 34.0
e 98 74 8.0
e 98 270 38.0
e 98 305 27.0
e 98 151 22.0
e 98 354 47.0
e 98 508 37.0
e 98 459 6.0
e 98 17 20.0
e 99 43 1.0
e 99 544 1.0
e 100 388 1.0
e 100 129 1.0
e 101 80 1.0
e 101 307 1.0
e 102 3 1.0
e 102 301 1.0
e 103 163 4.0
e 103 191 1.0
e 104 615 2.0
e 104 133 1.0
e 105 154 41.0
e 105 557 31.0
e 105 354 12.0
e 105 468 38.0
e 105 594 24.0
e 105 38 36.0
e 105 131 46.0
e 106 309 2.0
e 106 584 1.0
e 107 594 37.0
e 107 627 1.0
e 108 0 1.0
e 108 233 1.0
e 109 391 1.0
e 109 94 2.0
e 110 373 1.0
e 110 216 1.0
e 111 516 1.0
e 111 302 1.0
e 112 315 1.0
e 112 514 1.0
e 113 261 1.0
e 113 567 2.0
e 114 28 1.0
e 114 407 1.0
e 115 17 36.0
e 115 240 2.0
e 116 17 33.0
e 116 633 2.0
e 117 431 1.0
e 117 233 1.0
e 118 246 1.0
e 118 112 2.0
e 119 110 2.0
e 119 57 1.0
e 120 392 33.0
e 120 117 1.0
e 121 132 1.0
e 121 634 1.0
e 122 429 1.0
e 122 519 1.0
e 123 116 2.0
e 123 12 1.0
e 124 391 2.0
e 124 211 1.0
e 125 111 1.0
e 125 292 1.0
e 126 523 1.0
e 126 252 1.0
e 127 421 2.0
e 127 383 1.0
e 128 368 2.0
e 128 99 3.0
e 129 351 1.0
e 129 264 1.0
e 130 548 2.0
e 130 384 8.0
e 131 243 30.0
e 131 120 9.0
e 131 626 43.0
e 131 98 39.0
e 132 261 1.0
e 132 162 2.0
e 133 115 1.0
e 133 585 1.0
e 134 475 38.0
e 134 20 16.0
e 134 23 49.0
e 134 613 6.0
e 134 105 31.0
e 134 131 37.0
e 135 568 45.0
e 135 555 40.0
e 135 29 43.0
e 135 459 26.0
e 135 468 2.0
e 135 134 18.0
e 135 294 35.0
e 135 484 48.0
e 135 620 2.0
e 136 556 1.0
e 136 203 1.0
e 137 537 2.0
e 137 252 2.0
e 138 164 11.0
e 138 244 37.0
e 138 157 35.0
e 138 416 39.0
e 138 468 33.0
e 139 384 9.0
e 139 429 1.0
e 140 472 1.0
e 140 571 1.0
e 141 119 1.0
e 141 410 1.0
e 142 262 1.0
e 142 185 1.0
e 143 93 1.0
e 143 244 1.0
e 144 193 1.0
e 144 309 1.0
e 145 217 1.0
e 145 487 1.0
e 146 27 1.0
e 146 439 1.0
e 147 591 2.0
e 147 445 12.0
e 148 267 1.0
e 148 337 2.0
e 149 73 1.0
e 149 465 1.0
e 150 193 1.0
e 150 71 1.0
e 151 361 28.0
e 151 66 26.0
e 151 157 8.0
e 151 178 49.0
e 151 499 4.0
e 151 70 2.0
e 151 320 26.0
e 152 275 2.0
e 152 43 1.0
e 153 273 3.0
e 153 389 1.0
e 154 376 1.0
e 154 61 22.0
e 155 74 1.0
e 155 448 2.0
e 156 22 1.0
e 156 175 1.0
e 157 373 17.0
e 157 120 32.0
e 157 294 29.0
e 157 81 2.0
e 157 47 9.0
e 158 342 1.0
e 158 262 1.0
e 159 86 2.0
e 159 28 2.0
e 160 407 1.0
e 160 488 11.0
e 161 21 1.0
e 161 525 1.0
e 162 302 2.0
e 162 123 1.0
e 163 572 49.0
e 163 487 1.0
e 164 408 1.0
e 164 145 2.0
e 165 306 1.0
e 165 615 1.0
e 166 42 1.0
e 166 295 1.0
e 167 238 2.0
e 167 345 3.0
e 168 238 2.0
e 168 69 1.0
e 169 109 1.0
e 169 113 1.0
e 170 360 43.0
e 170 554 17.0
e 171 176 2.0
e 171 51 2.0
e 172 635 1.0
e 172 185 1.0
e 173 356 28.0
e 173 292 1.0
e 174 23 47.0
e 174 240 1.0
e 175 614 1.0
e 175 310 2.0
e 176 184 1.0
e 176 140 1.0
e 177 81 21.0
e 177 181 1.0
e 178 287 9.0
e 178 338 39.0
e 178 416 45.0
e 178 270 29.0
e 178 356 23.0
e 178 205 33.0
e 178 420 5.0
e 179 455 1.0
e 179 418 1.0
e 180 582 2.0
e 180 334 19.0
e 181 360 1.0
e 181 146 1.0
e 182 243 2.0
e 182 160 2.0
e 183 397 36.0
e 183 224 2.0
e 184 315 1.0
e 184 27 1.0
e 185 255 2.0
e 185 531 1.0
e 186 453 2.0
e 186 313 2.0
e 187 286 3.0
e 187 55 2.0
e 188 617 10.0
e 188 229 2.0
e 189 198 43.0
e 189 404 4.0
e 190 37 1.0
e 190 523 1.0
e 191 516 1.0
e 191 61 2.0
e 192 340 1.0
e 192 627 1.0
e 193 231 1.0
e 193 351 1.0
e 194 535 1.0
e 194 61 35.0
e 195 255 2.0
e 195 139 1.0
e 196 617 8.0
e 196 344 1.0
e 197 212 38.0
e 197 508 29.0
e 197 384 4.0
e 197 45 17.0
e 198 357 37.0
e 198 590 14.0
e 198 282 36.0
e 198 49 29.0
e 198 61 3.0
e 198 384 33.0
e 198 197 39.0
e 198 562 41.0
e 199 31 1.0
e 199 71 3.0
e 200 90 1.0
e 200 496 2.0
e 201 13 2.0
e 201 38 21.0
e 202 94 2.0
e 202 419 1.0
e 203 100 5.0
e 203 301 1.0
e 204 435 1.0
e 204 457 1.0
e 205 164 15.0
e 205 315 42.0
e 205 84 36.0
e 205 138 22.0
e 205 416 34.0
e 205 574 38.0
e 205 66 49.0
e 205 420 21.0
e 206 547 30.0
e 206 253 42.0
e 206 324 46.0
e 206 135 26.0
e 206 356 2.0
e 206 77 36.0
e 206 294 46.0
e 207 169 14.0
e 207 535 39.0
e 207 87 13.0
e 207 356 38.0
e 207 613 13.0
e 207 484 1.0
e 208 445 18.0
e 208 89 2.0
e 209 379 46.0
e 209 434 9.0
e 209 198 18.0
e 209 151 13.0
e 209 572 21.0
e 209 157 16.0
e 209 178 22.0
e 210 587 2.0
e 210 325 1.0
e 211 407 1.0
e 211 302 1.0
e 212 565 1.0
e 212 0 1.0
e 213 525 1.0
e 213 500 38.0
e 214 425 2.0
e 214 342 1.0
e 215 408 3.0
e 215 346 2.0
e 216 191 1.0
e 216 432 1.0
e 217 575 1.0
e 217 562 42.0
e 218 88 2.0
e 218 245 1.0
e 219 437 1.0
e 219 41 1.0
e 220 210 1.0
e 220 479 2.0
e 221 237 2.0
e 221 611 1.0
e 222 376 1.0
e 222 68 5.0
e 223 18 1.0
e 223 259 25.0
e 224 535 1.0
e 224 222 2.0
e 225 578 2.0
e 225 76 1.0
e 226 348 1.0
e 226 183 2.0
e 227 561 1.0
e 227 151 6.0
e 228 326 1.0
e 228 158 1.0
e 229 392 49.0
e 229 604 1.0
e 230 271 1.0
e 230 364 1.0
e 231 236 30.0
e 231 406 1.0
e 232 281 2.0
e 232 471 2.0
e 233 168 1.0
e 233 3 1.0
e 234 76 1.0
e 234 379 1.0
e 235 177 1.0
e 235 408 1.0
e 236 608 20.0
e 236 524 13.0
e 236 392 41.0
e 236 205 28.0
e 236 566 18.0
e 237 63 38.0
e 237 190 2.0
e 238 288 1.0
e 238 354 16.0
e 239 450 1.0
e 239 134 7.0
e 240 346 1.0
e 240 286 15.0
e 241 77 22.0
e 241 408 1.0
e 242 82 3.0
e 242 217 1.0
e 243 10 1.0
e 243 162 2.0
e 244 297 1.0
e 244 570 1.0
e 245 571 1.0
e 245 307 1.0
e 246 425 1.0
e 246 190 1.0
e 247 387 1.0
e 247 161 1.0
e 248 191 1.0
e 248 453 2.0
e 249 501 36.0
e 249 402 1.0
e 250 175 3.0
e 250 265 1.0
e 251 424 2.0
e 251 285 1.0
e 252 140 1.0
e 252 470 1.0
e 253 256 2.0
e 253 235 2.0
e 254 367 1.0
e 254 20 1.0
e 255 509 1.0
e 255 436 3.0
e 256 0 1.0
e 256 349 2.0
e 257 109 1.0
e 257 313 1.0
e 258 483 2.0
e 258 216 1.0
e 259 22 16.0
e 259 170 25.0
e 260 216 1.0
e 260 441 1.0
e 261 172 1.0
e 262 637 2.0
e 262 103 1.0
e 263 506 1.0
e 263 241 2.0
e 264 111 1.0
e 264 215 1.0
e 265 94 1.0
e 265 453 2.0
e 266 577 1.0
e 266 238 2.0
e 267 611 1.0
e 267 217 1.0
e 268 277 1.0
e 268 379 1.0
e 269 12 1.0
e 269 75 1.0
e 270 391 11.0
e 270 386 39.0
e 270 416 45.0
e 270 440 40.0
e 271 523 2.0
e 271 193 1.0
e 272 144 1.0
e 272 182 1.0
e 273 443 36.0
e 273 118 1.0
e 274 433 2.0
e 274 419 2.0
e 275 21 1.0
e 275 511 3.0
e 276 326 1.0
e 276 429 1.0
e 277 99 1.0
e 277 471 3.0
e 278 551 1.0
e 278 538 40.0
e 279 243 1.0
e 279 378 2.0
e 280 592 1.0
e 280 78 1.0
e 281 318 1.0
e 281 212 2.0
e 282 482 32.0
e 282 372 16.0
e 282 206 9.0
e 282 207 42.0
e 282 356 43.0
e 282 209 43.0
e 282 236 40.0
e 283 281 1.0
e 283 352 3.0
e 284 499 36.0
e 284 242 3.0
e 285 88 1.0
e 285 93 1.0
e 286 182 4.0
e 286 138 43.0
e 286 270 42.0
e 287 34 1.0
e 287 152 1.0
e 288 116 3.0
e 288 308 1.0
e 289 372 1.0
e 289 8 2.0
e 290 490 1.0
e 290 420 17.0
e 291 323 1.0
e 291 539 1.0
e 292 540 1.0
e 292 238 1.0
e 293 306 1.0
e 293 202 1.0
e 294 389 16.0
e 294 264 22.0
e 294 282 46.0
e 294 384 17.0
e 295 182 1.0
e 295 494 1.0
e 296 533 1.0
e 296 576 1.0
e 297 602 1.0
e 297 361 1.0
e 298 495 1.0
e 298 529 1.0
e 299 562 36.0
e 299 335 1.0
e 300 268 1.0
e 300 204 1.0
e 301 161 2.0
e 301 633 1.0
e 302 510 3.0
e 302 611 1.0
e 303 242 1.0
e 303 27 1.0
e 304 158 1.0
e 304 492 1.0
e 305 271 12.0
e 305 6 24.0
e 305 484 25.0
e 305 324 42.0
e 305 320 1.0
e 305 286 25.0
e 305 334 7.0
e 305 294 22.0
e 306 255 1.0
e 306 332 1.0
e 307 168 1.0
e 307 180 2.0
e 308 73 1.0
e 308 207 13.0
e 309 359 1.0
e 309 246 1.0
e 310 86 1.0
e 310 260 1.0
e 311 600 1.0
e 311 134 30.0
e 312 628 2.0
e 312 532 1.0
e 313 310 2.0
e 313 327 2.0
e 314 470 2.0
e 314 557 1.0
e 315 462 9.0
e 315 126 1.0
e 316 280 1.0
e 316 65 1.0
e 317 116 1.0
e 317 270 9.0
e 318 85 1.0
e 318 183 1.0
e 319 498 1.0
e 319 354 48.0
e 320 472 44.0
e 320 211 2.0
e 320 562 5.0
e 320 451 3.0
e 320 594 41.0
e 321 402 1.0
e 321 124 1.0
e 322 499 2.0
e 322 350 3.0
e 323 259 24.0
e 323 158 2.0
e 324 500 4.0
e 324 59 39.0
e 324 613 21.0
e 324 440 40.0
e 324 443 38.0
e 324 562 7.0
e 325 609 1.0
e 325 169 1.0
e 326 212 2.0
e 326 182 1.0
e 327 600 1.0
e 327 53 1.0
e 328 354 1.0
e 328 421 1.0
e 329 86 1.0
e 329 67 1.0
e 330 487 1.0
e 330 82 1.0
e 331 83 1.0
e 331 244 1.0
e 332 494 3.0
e 332 593 3.0
e 333 407 3.0
e 333 320 3.0
e 334 625 35.0
e 334 366 28.0
e 334 320 21.0
e 334 594 39.0
e 334 622 34.0
e 335 326 2.0
e 335 283 1.0
e 336 371 5.0
e 336 93 35.0
e 336 445 23.0
e 336 305 17.0
e 336 546 8.0
e 336 563 30.0
e 336 324 30.0
e 337 13 2.0
e 337 618 1.0
e 338 232 1.0
e 338 401 1.0
e 339 361 1.0
e 339 583 1.0
e 340 319 1.0
e 340 281 2.0
e 341 596 1.0
e 341 607 1.0
e 342 355 1.0
e 342 517 2.0
e 343 199 1.0
e 343 625 2.0
e 344 176 1.0
e 344 144 1.0
e 345 250 2.0
e 345 413 1.0
e 346 224 1.0
e 346 619 1.0
e 347 40 1.0
e 347 350 1.0
e 348 523 1.0
e 348 488 14.0
e 349 217 2.0
e 349 427 1.0
e 350 88 1.0
e 350 392 8.0
e 351 194 1.0
e 351 199 1.0
e 352 16 1.0
e 352 394 1.0
e 353 119 1.0
e 353 434 1.0
e 354 574 49.0
e 354 350 24.0
e 355 432 1.0
e 355 422 1.0
e 356 263 19.0
e 356 378 47.0
e 356 334 12.0
e 357 479 1.0
e 357 172 1.0
e 358 325 2.0
e 358 90 2.0
e 359 386 2.0
e 359 363 2.0
e 360 229 2.0
e 360 601 1.0
e 361 68 1.0
e 361 609 2.0
e 362 626 49.0
e 362 458 1.0
e 363 118 1.0
e 363 631 1.0
e 364 48 3.0
e 364 258 1.0
e 365 0 1.0
e 365 113 3.0
e 366 328 1.0
e 366 509 2.0
e 367 634 2.0
e 367 575 2.0
e 368 291 1.0
e 368 596 1.0
e 369 594 33.0
e 369 3 2.0
e 370 251 1.0
e 370 475 1.0
e 371 317 1.0
e 371 487 2.0
e 372 314 1.0
e 372 294 8.0
e 373 541 1.0
e 373 301 1.0
e 374 423 2.0
e 374 92 1.0
e 375 335 1.0
e 375 1 2.0
e 376 623 1.0
e 376 540 1.0
e 377 180 1.0
e 377 385 6.0
e 378 593 1.0
e 378 230 2.0
e 379 239 1.0
e 379 37 1.0
e 380 614 1.0
e 380 47 32.0
e 381 286 5.0
e 381 140 1.0
e 382 404 1.0
e 382 497 1.0
e 383 329 1.0
e 383 274 2.0
e 384 297 41.0
e 384 213 45.0
e 385 489 35.0
e 385 343 1.0
e 386 173 1.0
e 386 299 1.0
e 387 570 2.0
e 387 599 2.0
e 388 302 2.0
e 388 167 2.0
e 389 339 1.0
e 389 175 2.0
e 390 434 31.0
e 390 311 38.0
e 390 396 5.0
e 390 538 21.0
e 390 336 38.0
e 390 356 26.0
e 390 397 1.0
e 390 451 4.0
e 391 257 2.0
e 391 168 1.0
e 392 259 13.0
e 392 543 47.0
e 393 331 1.0
e 393 611 2.0
e 394 269 2.0
e 394 526 1.0
e 395 627 2.0
e 395 462 11.0
e 396 41 6.0
e 396 266 25.0
e 396 513 17.0
e 396 397 5.0
e 396 416 40.0
e 396 420 17.0
e 397 33 46.0
e 397 335 12.0
e 397 499 5.0
e 397 416 2.0
e 397 459 41.0
e 398 474 1.0
e 398 497 3.0
e 399 573 2.0
e 399 495 2.0
e 400 176 1.0
e 400 164 1.0
e 401 248 1.0
e 401 307 1.0
e 402 392 31.0
e 402 618 2.0
e 403 287 1.0
e 403 86 1.0
e 404 234 1.0
e 404 154 1.0
e 405 233 1.0
e 405 41 1.0
e 406 72 1.0
e 406 139 1.0
e 407 303 1.0
e 407 56 1.0
e 408 441 1.0
e 408 276 1.0
e 409 253 2.0
e 409 96 1.0
e 410 463 1.0
e 410 343 1.0
e 411 6 1.0
e 411 31 1.0
e 412 285 1.0
e 412 196 1.0
e 413 462 17.0
e 413 147 2.0
e 414 114 1.0
e 414 152 2.0
e 415 408 3.0
e 415 122 1.0
e 416 548 26.0
e 416 336 14.0
e 417 121 1.0
e 417 454 1.0
e 418 177 1.0
e 418 44 2.0
e 419 260 1.0
e 419 219 2.0
e 420 466 34.0
e 420 587 47.0
e 420 390 30.0
e 421 541 1.0
e 421 72 1.0
e 422 57 1.0
e 422 551 1.0
e 423 95 1.0
e 423 367 1.0
e 424 258 1.0
e 424 157 33.0
e 425 597 1.0
e 425 469 1.0
e 426 262 1.0
e 426 634 1.0
e 427 16 1.0
e 427 270 14.0
e 428 506 1.0
e 428 487 2.0
e 429 589 2.0
e 429 512 2.0
e 430 464 1.0
e 430 359 1.0
e 431 499 34.0
e 431 286 26.0
e 432 170 42.0
e 432 176 1.0
e 433 373 2.0
e 433 407 1.0
e 434 623 1.0
e 434 503 1.0
e 435 408 1.0
e 435 206 16.0
e 436 244 1.0
e 436 111 1.0
e 437 246 1.0
e 437 516 1.0
e 438 442 1.0
e 438 459 42.0
e 439 609 1.0
e 439 584 1.0
e 440 139 24.0
e 440 374 43.0
e 440 396 34.0
e 441 635 2.0
e 441 618 1.0
e 442 82 1.0
e 442 10 1.0
e 443 540 22.0
e 443 362 48.0
e 443 546 46.0
e 443 397 19.0
e 443 420 27.0
e 443 440 14.0
e 444 121 1.0
e 444 615 1.0
e 445 154 36.0
e 445 51 7.0
e 445 443 33.0
e 445 484 7.0
e 445 451 8.0
e 446 430 1.0
e 446 390 49.0
e 447 56 1.0
e 447 55 1.0
e 448 417 1.0
e 448 315 1.0
e 449 442 3.0
e 449 185 1.0
e 450 614 2.0
e 450 122 1.0
e 451 435 5.0
e 451 62 42.0
e 451 459 31.0
e 451 462 37.0
e 451 468 35.0
e 451 563 19.0
e 452 277 1.0
e 452 456 1.0
e 453 392 32.0
e 453 402 1.0
e 454 419 1.0
e 454 470 1.0
e 455 516 1.0
e 455 272 2.0
e 456 590 1.0
e 456 200 1.0
e 457 37 1.0
e 457 465 1.0
e 458 116 1.0
e 458 623 1.0
e 459 561 3.0
e 459 493 21.0
e 460 240 1.0
e 460 272 2.0
e 461 417 1.0
e 461 96 2.0
e 462 100 42.0
e 462 218 37.0
e 463 53 2.0
e 463 336 21.0
e 464 470 1.0
e 464 523 1.0
e 465 231 3.0
e 465 494 1.0
e 466 365 5.0
e 466 414 3.0
e 467 592 1.0
e 467 214 1.0
e 468 110 43.0
e 468 191 39.0
e 468 445 49.0
e 468 459 15.0
e 468 563 26.0
e 469 306 2.0
e 469 105 4.0
e 470 443 32.0
e 470 532 1.0
e 471 113 1.0
e 471 87 31.0
e 472 374 1.0
e 472 408 1.0
e 473 139 1.0
e 473 634 1.0
e 474 231 1.0
e 474 508 7.0
e 475 61 1.0
e 475 518 1.0
e 476 83 1.0
e 476 165 1.0
e 477 601 1.0
e 477 290 1.0
e 478 65 1.0
e 478 479 1.0
e 479 412 2.0
e 479 420 40.0
e 480 279 1.0
e 480 553 1.0
e 481 392 45.0
e 481 131 18.0
e 482 16 1.0
e 482 36 1.0
e 483 487 1.0
e 483 60 1.0
e 484 277 30.0
e 484 128 6.0
e 485 624 1.0
e 485 304 1.0
e 486 51 40.0
e 486 239 1.0
e 487 612 1.0
e 487 635 1.0
e 488 590 40.0
e 488 589 31.0
e 488 451 14.0
e 488 538 7.0
e 488 546 39.0
e 489 225 6.0
e 489 201 44.0
e 489 462 29.0
e 489 468 29.0
e 489 484 47.0
e 489 513 16.0
e 489 488 38.0
e 490 455 1.0
e 490 150 1.0
e 491 488 5.0
e 491 452 2.0
e 492 496 1.0
e 492 106 1.0
e 493 564 1.0
e 493 228 1.0
e 494 213 1.0
e 494 120 1.0
e 495 529 3.0
e 495 523 1.0
e 496 353 1.0
e 496 251 3.0
e 497 145 1.0
e 497 561 1.0
e 498 213 1.0
e 498 168 1.0
e 499 296 30.0
e 499 62 5.0
e 499 489 1.0
e 499 500 25.0
e 500 36 41.0
e 500 496 34.0
e 500 501 49.0
e 500 502 45.0
e 501 557 23.0
e 501 635 13.0
e 501 499 46.0
e 501 502 20.0
e 501 594 31.0
e 502 464 44.0
e 502 606 9.0
e 502 508 21.0
e 502 513 42.0
e 502 538 8.0
e 503 307 1.0
e 503 79 1.0
e 504 41 2.0
e 504 293 1.0
e 505 89 1.0
e 505 170 29.0
e 506 590 2.0
e 506 209 46.0
e 507 265 1.0
e 507 361 2.0
e 508 97 12.0
e 508 621 45.0
e 508 500 21.0
e 508 501 20.0
e 509 400 2.0
e 509 445 43.0
e 510 423 1.0
e 510 77 13.0
e 511 273 2.0
e 511 20 1.0
e 512 604 1.0
e 512 485 2.0
e 513 523 44.0
e 513 23 13.0
e 514 522 1.0
e 514 54 1.0
e 515 134 45.0
e 515 422 1.0
e 516 576 2.0
e 516 268 1.0
e 517 559 2.0
e 517 14 1.0
e 518 87 31.0
e 519 333 4.0
e 519 308 1.0
e 520 636 1.0
e 520 434 1.0
e 521 218 1.0
e 521 159 1.0
e 522 317 1.0
e 522 342 2.0
e 523 454 1.0
e 523 415 1.0
e 524 321 1.0
e 524 328 1.0
e 525 518 1.0
e 525 244 1.0
e 526 620 26.0
e 526 588 1.0
e 527 274 1.0
e 527 403 1.0
e 528 144 1.0
e 528 219 1.0
e 529 434 1.0
e 529 162 1.0
e 530 231 1.0
e 530 202 1.0
e 531 437 2.0
e 531 477 1.0
e 532 352 1.0
e 532 267 2.0
e 533 63 48.0
e 533 494 1.0
e 534 169 1.0
e 534 540 1.0
e 535 584 2.0
e 535 174 1.0
e 536 434 1.0
e 536 185 1.0
e 537 485 1.0
e 537 578 1.0
e 538 85 28.0
e 538 440 44.0
e 538 508 47.0
e 538 513 16.0
e 538 546 4.0
e 539 197 42.0
e 539 462 24.0
e 540 628 1.0
e 540 356 9.0
e 541 280 1.0
e 541 517 1.0
e 542 82 1.0
e 542 470 2.0
e 543 88 1.0
e 543 453 3.0
e 544 317 1.0
e 544 75 1.0
e 545 339 2.0
e 545 38 18.0
e 546 357 32.0
e 546 373 40.0
e 546 581 7.0
e 546 563 37.0
e 546 502 25.0
e 547 553 1.0
e 547 275 3.0
e 548 251 1.0
e 548 534 1.0
e 549 79 1.0
e 549 428 1.0
e 550 466 2.0
e 550 218 1.0
e 551 368 1.0
e 551 133 1.0
e 552 400 1.0
e 552 507 2.0
e 553 364 2.0
e 553 379 1.0
e 554 0 1.0
e 554 335 1.0
e 555 239 2.0
e 555 89 1.0
e 556 174 2.0
e 556 181 1.0
e 557 116 2.0
e 557 179 1.0
e 558 184 1.0
e 558 393 1.0
e 559 465 2.0
e 559 513 42.0
e 560 440 45.0
e 560 206 49.0
e 561 146 2.0
e 561 33 1.0
e 562 91 35.0
e 562 513 4.0
e 563 571 41.0
e 563 337 46.0
e 563 538 42.0
e 564 70 19.0
e 564 75 2.0
e 565 402 2.0
e 565 143 1.0
e 566 239 41.0
e 566 66 2.0
e 566 617 17.0
e 566 546 11.0
e 566 563 41.0
e 566 594 28.0
e 566 572 45.0
e 567 503 1.0
e 567 440 7.0
e 568 505 2.0
e 568 326 1.0
e 569 483 2.0
e 569 592 1.0
e 570 348 1.0
e 570 274 1.0
e 571 88 1.0
e 571 138 39.0
e 572 91 13.0
e 572 228 29.0
e 572 574 8.0
e 572 581 26.0
e 572 613 7.0
e 573 462 19.0
e 573 436 1.0
e 574 145 42.0
e 574 290 35.0
e 574 566 46.0
e 574 581 30.0
e 574 613 39.0
e 574 616 47.0
e 575 395 1.0
e 575 64 1.0
e 576 422 1.0
e 576 579 2.0
e 577 531 1.0
e 577 591 1.0
e 578 540 1.0
e 578 346 1.0
e 579 524 1.0
e 579 610 2.0
e 580 267 2.0
e 580 74 1.0
e 581 222 42.0
e 581 387 11.0
e 581 616 47.0
e 581 617 17.0
e 581 620 27.0
e 582 584 2.0
e 582 420 20.0
e 583 108 1.0
e 583 342 1.0
e 584 502 33.0
e 584 521 1.0
e 585 208 2.0
e 585 55 2.0
e 586 118 1.0
e 586 315 1.0
e 587 323 2.0
e 587 422 2.0
e 588 271 1.0
e 588 545 2.0
e 589 57 1.0
e 589 13 2.0
e 590 220 1.0
e 590 490 1.0
e 591 355 1.0
e 591 293 1.0
e 592 108 1.0
e 592 311 1.0
e 593 584 2.0
e 593 177 1.0
e 594 258 48.0
e 594 184 28.0
e 595 363 1.0
e 595 261 1.0
e 596 24 1.0
e 596 455 1.0
e 597 560 1.0
e 597 587 1.0
e 598 586 1.0
e 598 417 1.0
e 599 505 1.0
e 599 55 1.0
e 600 448 1.0
e 600 480 1.0
e 601 489 35.0
e 601 117 1.0
e 602 537 1.0
e 602 580 2.0
e 603 635 2.0
e 603 276 1.0
e 604 322 1.0
e 604 496 1.0
e 605 102 1.0
e 605 53 1.0
e 606 3 2.0
e 606 194 1.0
e 607 246 1.0
e 607 150 1.0
e 608 21 5.0
e 608 437 4.0
e 609 57 2.0
e 609 395 2.0
e 610 449 1.0
e 610 566 49.0
e 611 598 1.0
e 611 322 1.0
e 612 500 12.0
e 612 455 1.0
e 613 325 13.0
e 613 294 46.0
e 614 467 2.0
e 614 408 1.0
e 615 67 1.0
e 615 255 1.0
e 616 63 35.0
e 616 540 10.0
e 616 572 39.0
e 616 617 9.0
e 616 620 16.0
e 617 558 49.0
e 617 266 9.0
e 617 574 6.0
e 617 620 27.0
e 618 569 1.0
e 618 340 1.0
e 619 473 1.0
e 619 43 1.0
e 620 593 25.0
e 620 87 6.0
e 621 207 12.0
e 621 424 1.0
e 622 251 1.0
e 622 397 46.0
e 623 145 1.0
e 623 498 1.0
e 624 204 1.0
e 624 326 1.0
e 625 408 1.0
e 625 8 1.0
e 626 485 14.0
e 626 22 24.0
e 626 581 8.0
e 626 616 49.0
e 626 617 29.0
e 627 239 1.0
e 627 582 2.0
e 628 388 1.0
e 628 219 3.0
e 629 513 18.0
e 629 355 1.0
e 630 475 1.0
e 630 422 1.0
e 631 100 3.0
e 631 72 1.0
e 632 577 1.0
e 632 107 2.0
e 633 61 44.0
e 633 537 1.0
e 634 183 1.0
e 634 518 1.0
e 635 69 1.0
e 635 376 1.0
e 636 613 23.0
e 636 212 1.0
e 637 471 1.0
e 637 217 1.0
e 638 264 1.0
e 638 404 2.0
e 639 494 1.0
e 639 569 2.0
